(set-logic CHC_LIA)

(synth-fun state ((x_0 Bool) (x_1 Bool) (x_2 Bool) (x_3 Bool) (x_4 Bool) (x_5 Int) (x_6 Int) (x_7 Int) (x_8 Int) (x_9 Int)) Bool)

(constraint (forall ((.s.1 Bool) (.s.0 Bool) (.s.2 Bool) (.s.3 Bool) (.s.4 Bool) (main.k Int) (main.x Int) (main.c Int) (main.y Int) (main.z Int)) (=> (and (not .s.1) .s.0 (not .s.2) (not .s.3) (not .s.4)) (state .s.1 .s.0 .s.2 .s.3 .s.4 main.k main.x main.c main.y main.z))))
(constraint (forall ((.s.1 Bool) (.s.0 Bool) (.s.2 Bool) (.s.3 Bool) (.s.4 Bool) (main.k Int) (main.x Int) (main.c Int) (main.y Int) (main.z Int) (.s.2.next Bool) (.s.1.next Bool) (.s.0.next Bool) (.s.3.next Bool) (.s.4.next Bool) (main.k.next Int) (main.x.next Int) (main.c.next Int) (main.y.next Int) (main.z.next Int) (.inputVar.0 Int)) (let ((a!1 (and .s.3 (and (not .s.2) (and (not .s.1) (not .s.0))))) (a!2 (and (and (not .s.2.next) (and (not .s.1.next) (not .s.0.next))) .s.3.next)) (a!4 (and .s.4 (and (not .s.3) (and .s.2 (and .s.1 .s.0))))) (a!5 (and (and (not .s.2.next) (and (not .s.1.next) (not .s.0.next))) (not .s.3.next))) (a!7 (and (not .s.3) (and .s.2 (and .s.1 (not .s.0))))) (a!8 (and (= main.z main.z.next) (= main.y main.y.next) (= main.c main.c.next) (= main.x main.x.next) (= main.k main.k.next) .s.4.next (and (not .s.3.next) (and .s.2.next (and .s.1.next .s.0.next))))) (a!9 (and (not .s.3) (and (and (not .s.1) .s.0) .s.2))) (a!10 (and (not .s.3.next) (and .s.2.next (and .s.1.next (not .s.0.next))))) (a!13 (and (not .s.3) (and .s.2 (and (not .s.1) (not .s.0))))) (a!14 (and (not .s.4.next) (and (not .s.3.next) (and (not .s.2.next) (and .s.1.next .s.0.next))))) (a!15 (and .s.4 (and (not .s.3) (and (not .s.2) (and .s.1 .s.0))))) (a!16 (= (+ main.k main.y (* (- 1) main.z.next)) 0)) (a!17 (and (not .s.3.next) (and .s.2.next (and (not .s.1.next) (not .s.0.next))))) (a!18 (and (not .s.3) (and (not .s.2) (and .s.1 (not .s.0))))) (a!19 (and (= main.z main.z.next) (= main.y main.y.next) (= main.c main.c.next) (= main.x main.x.next) (= main.k main.k.next) (not .s.4.next) .s.3.next (and .s.2.next (and .s.1.next .s.0.next)))) (a!20 (and (and (and (not .s.1) .s.0) (not .s.2)) (not .s.3))) (a!21 (and (not .s.3.next) (and (not .s.2.next) (and .s.1.next (not .s.0.next))))) (a!22 (= (+ main.y (* (- 1) main.y.next)) 1)) (a!23 (and (not .s.3) (and (not .s.2) (and (not .s.1) (not .s.0))))) (a!24 (= (+ main.x (* (- 1) main.x.next)) 1)) (a!26 (and (and (not .s.4) .s.3 (and .s.2 (and .s.1 .s.0))) (not (= .inputVar.0 0)))) (a!27 (and (= main.z main.z.next) (= main.y main.y.next) (= main.c main.c.next) (= main.x main.x.next) (= main.k main.k.next) .s.4.next (and (not .s.3.next) (and (not .s.2.next) (and .s.1.next .s.0.next))))) (a!28 (and (and (not .s.4) .s.3 (and .s.2 (and .s.1 .s.0))) (= .inputVar.0 0))) (a!29 (and (not .s.4) .s.3 (and .s.2 (and .s.1 (not .s.0))))) (a!30 (and (not .s.4.next) .s.3.next (and (not .s.2.next) (and .s.1.next (not .s.0.next))))) (a!31 (and (not .s.4) .s.3 (and (and (not .s.1) .s.0) .s.2))) (a!32 (= (+ main.c (* (- 1) main.c.next)) (- 1))) (a!34 (and (not .s.4) .s.3 (and .s.2 (and (not .s.1) (not .s.0))))) (a!36 (not (and (not .s.4) .s.3 (and (not .s.2) (and .s.1 .s.0))))) (a!37 (= (+ main.x (* (- 1) main.x.next)) (- 1))) (a!39 (and (not .s.4) .s.3 (and (not .s.2) (and .s.1 (not .s.0))))) (a!40 (and (not .s.3.next) (and .s.2.next (and (not .s.1.next) .s.0.next)))) (a!42 (and (not .s.4) (and (and (not .s.1) .s.0) (not .s.2)) .s.3)) (a!43 (= (+ main.y (* (- 1) main.y.next)) (- 1))) (a!46 (and (not .s.4) (and (not .s.3) (and .s.2 (and .s.1 .s.0))))) (a!47 (= (+ main.k (* (- 1) main.c) main.y (* (- 1) main.z)) 0)) (a!51 (and (= main.z main.z.next) (= main.y main.y.next) (= main.c main.c.next) (= main.x main.x.next) (= main.k main.k.next) (not .s.4.next) (and (not .s.3.next) (and .s.2.next (and .s.1.next .s.0.next))))) (a!55 (and (not .s.4) (and (not .s.3) (and (not .s.2) (and .s.1 .s.0)))))) (let ((a!3 (and a!2 .s.4.next (= main.k main.k.next) (= main.x main.x.next) (= main.c main.c.next) (= main.y main.y.next) (= main.z main.z.next))) (a!6 (and (= main.z main.z.next) (= main.y main.y.next) (= main.c main.c.next) (= main.x main.x.next) (= main.k main.k.next) (not .s.4.next) a!5)) (a!11 (or (not (and (and .s.4 a!9) (= main.x main.y))) (and (= main.z main.z.next) (= main.y main.y.next) (= main.c main.c.next) (= main.x main.x.next) (= main.k main.k.next) .s.4.next a!10))) (a!12 (not (and (and .s.4 a!9) (not (= main.x main.y))))) (a!25 (and (= main.z main.z.next) (= main.y main.y.next) (= main.c main.c.next) (= main.k main.k.next) a!24 .s.4.next (not .s.3.next) (and (not .s.2.next) (and (not .s.1.next) .s.0.next)))) (a!33 (and (= main.z main.z.next) (= main.y main.y.next) (= main.x main.x.next) (= main.k main.k.next) (not .s.4.next) .s.3.next (and .s.2.next (and .s.1.next (not .s.0.next))) a!32)) (a!35 (and (= main.z main.z.next) (= main.c main.c.next) (= main.x main.x.next) (= main.k main.k.next) a!22 (not .s.4.next) .s.3.next (and .s.2.next (and (not .s.1.next) .s.0.next)))) (a!38 (and (= main.z main.z.next) (= main.y main.y.next) (= main.c main.c.next) (= main.k main.k.next) (not .s.4.next) .s.3.next (and .s.2.next (and (not .s.1.next) (not .s.0.next))) a!37)) (a!41 (or (not a!39) (and (= main.z main.z.next) (= main.y main.y.next) (= main.c main.c.next) (= main.x main.x.next) (= main.k main.k.next) (and (not .s.4.next) a!40)))) (a!44 (and (= main.z main.z.next) (= main.c main.c.next) (= main.x main.x.next) (= main.k main.k.next) a!43 (not .s.4.next) .s.3.next (and (not .s.2.next) (and (not .s.1.next) .s.0.next)))) (a!48 (not (and (and (not .s.4) a!7) (not a!47)))) (a!50 (not (and (and (not .s.4) a!7) a!47))) (a!52 (not (and (not (= .inputVar.0 0)) (and (not .s.4) a!9)))) (a!53 (not (and (= .inputVar.0 0) (and (not .s.4) a!9)))) (a!54 (or (not (and (not .s.4) a!13)) (and (= main.z main.z.next) (= main.y main.y.next) (= main.x main.x.next) (= main.k main.k.next) (and (not .s.4.next) a!40) (= main.c.next 0)))) (a!56 (not (and (not (= .inputVar.0 0)) a!55))) (a!57 (or (not (and (= .inputVar.0 0) a!55)) (and (= main.z main.z.next) (= main.y main.y.next) (= main.c main.c.next) (= main.x main.x.next) (= main.k main.k.next) (not .s.4.next) a!17))) (a!58 (or (not (and (not .s.4) a!18)) (and (= main.z main.z.next) (= main.c main.c.next) (= main.k main.k.next) (= main.x.next 0) a!14 (= main.y.next 0)))) (a!59 (or (not (and a!20 (not .s.4))) (and (= main.y main.y.next) (= main.c main.c.next) (= main.x main.x.next) (= main.k main.k.next) (= main.k main.z.next) (not .s.4.next) a!21)))) (let ((a!45 (or (not (and (not .s.4) a!1)) a!44)) (a!49 (or a!48 (and (= main.z main.z.next) (= main.y main.y.next) (= main.c main.c.next) (= main.x main.x.next) (= main.k main.k.next) (not .s.4.next) .s.3.next (and (not .s.2.next) (and .s.1.next .s.0.next))))) (a!60 (or a!6 (not (and (not .s.4) a!23))))) (let ((a!61 (and (state .s.1 .s.0 .s.2 .s.3 .s.4 main.k main.x main.c main.y main.z) (or (not (and .s.4 a!1)) a!3) (or (not a!4) a!6) (or (not (and .s.4 a!7)) a!8) a!11 (or a!3 a!12) (or (not (and .s.4 a!13)) (and (= main.z main.z.next) (= main.y main.y.next) (= main.c main.c.next) (= main.x main.x.next) (= main.k main.k.next) a!14)) (or (not a!15) (and (= main.y main.y.next) (= main.c main.c.next) (= main.x main.x.next) (= main.k main.k.next) a!16 .s.4.next a!17)) (or (not (and .s.4 a!18)) a!19) (or (not (and a!20 .s.4)) (and (= main.z main.z.next) (= main.c main.c.next) (= main.x main.x.next) (= main.k main.k.next) .s.4.next a!21 a!22)) (or (not (and .s.4 a!23)) a!25) (or (not a!26) a!27) (or (not a!28) (and (= main.z main.z.next) (= main.y main.y.next) (= main.c main.c.next) (= main.x main.x.next) (= main.k main.k.next) .s.4.next a!5)) (or (not a!29) (and (= main.z main.z.next) (= main.y main.y.next) (= main.c main.c.next) (= main.x main.x.next) (= main.k main.k.next) a!30)) (or (not a!31) a!33) (or (not a!34) a!35) (or a!36 a!38) a!41 (or (not a!42) (and (= main.z main.z.next) (= main.y main.y.next) (= main.x main.x.next) (= main.k main.k.next) a!30 a!32)) a!45 (or (not a!46) (and (= main.z main.z.next) (= main.y main.y.next) (= main.c main.c.next) (= main.k main.k.next) a!37 a!2 (not .s.4.next))) a!49 (or a!50 a!51) (or a!19 a!52) (or a!53 (and (= main.z main.z.next) (= main.y main.y.next) (= main.c main.c.next) (= main.x main.x.next) (= main.k main.k.next) (not .s.4.next) a!10)) a!54 (or a!56 (and (= main.z main.z.next) (= main.y main.y.next) (= main.c main.c.next) (= main.x main.x.next) (= main.k main.k.next) .s.4.next a!40)) a!57 a!58 a!59 a!60))) (=> a!61 (state .s.1.next .s.0.next .s.2.next .s.3.next .s.4.next main.k.next main.x.next main.c.next main.y.next main.z.next))))))))
(constraint (forall ((.s.1 Bool) (.s.0 Bool) (.s.2 Bool) (.s.3 Bool) (.s.4 Bool) (main.k Int) (main.x Int) (main.c Int) (main.y Int) (main.z Int)) (let ((a!1 (not (not (and .s.4 .s.3 (not .s.2) (not .s.1) (not .s.0)))))) (=> (and (state .s.1 .s.0 .s.2 .s.3 .s.4 main.k main.x main.c main.y main.z) a!1) false))))

(check-synth)

